p cnf 40 105
-1 -2 0
-1 -3 0
-1 -4 0
-1 -5 0
-2 -3 0
-2 -4 0
-2 -5 0
-3 -4 0
-3 -5 0
-4 -5 0
-6 -7 0
-6 -8 0
-6 -9 0
-6 -10 0
-7 -8 0
-7 -9 0
-7 -10 0
-8 -9 0
-8 -10 0
-9 -10 0
-11 -12 0
-11 -13 0
-11 -14 0
-11 -15 0
-12 -13 0
-12 -14 0
-12 -15 0
-13 -14 0
-13 -15 0
-14 -15 0
-16 -17 0
-16 -18 0
-16 -19 0
-16 -20 0
-17 -18 0
-17 -19 0
-17 -20 0
-18 -19 0
-18 -20 0
-19 -20 0
-21 -22 0
-21 -23 0
-21 -24 0
-21 -25 0
-22 -23 0
-22 -24 0
-22 -25 0
-23 -24 0
-23 -25 0
-24 -25 0
-26 -27 0
-26 -28 0
-26 -29 0
-26 -30 0
-27 -28 0
-27 -29 0
-27 -30 0
-28 -29 0
-28 -30 0
-29 -30 0
-31 -32 0
-31 -33 0
-31 -34 0
-31 -35 0
-32 -33 0
-32 -34 0
-32 -35 0
-33 -34 0
-33 -35 0
-34 -35 0
-36 -37 0
-36 -38 0
-36 -39 0
-36 -40 0
-37 -38 0
-37 -39 0
-37 -40 0
-38 -39 0
-38 -40 0
-39 -40 0
1 6 11 16 21 26 31 36 0
2 7 12 17 22 27 32 37 0
3 8 13 18 23 28 33 38 0
4 9 14 19 24 29 34 39 0
5 10 15 20 25 30 35 40 0
1 10 14 18 22 26 35 39 0
2 6 15 19 23 27 31 40 0
3 7 11 20 24 28 32 36 0
4 8 12 16 25 29 33 37 0
5 9 13 17 21 30 34 38 0
1 9 12 20 23 26 34 37 0
2 10 13 16 24 27 35 38 0
3 6 14 17 25 28 31 39 0
4 7 15 18 21 29 32 40 0
5 8 11 19 22 30 33 36 0
1 8 15 17 24 26 33 40 0
2 9 11 18 25 27 34 36 0
3 10 12 19 21 28 35 37 0
4 6 13 20 22 29 31 38 0
5 7 14 16 23 30 32 39 0
1 7 13 19 25 26 32 38 0
2 8 14 20 21 27 33 39 0
3 9 15 16 22 28 34 40 0
4 10 11 17 23 29 35 36 0
5 6 12 18 24 30 31 37 0
